projected/problems_b25_r0_d7_m100_s666/_DIMACS/b25_d7_r0_s666_035.cnf
p cnf 191 276 25
c p show 1 2 3 4 5 6 7 8 9 10 11 12 13 14 15 16 17 18 19 20 21 22 23 24 25
-69 20 -16 0
-70 12 0
-70 -15 0
-72 70 69 0
-73 16 0
-73 -4 0
-74 14 2 0
-75 -2 -14 0
-76 75 0
-76 74 0
-78 76 73 0
-79 78 72 0
-80 3 -12 0
-81 -8 5 0
-82 81 0
-82 80 0
-84 8 0
-84 -5 0
-85 -3 0
-85 12 0
-86 85 0
-86 84 0
-87 86 82 0
-88 17 0
-88 23 0
-90 14 0
-90 -18 0
-91 90 0
-91 88 0
-92 91 87 0
-93 92 79 0
-94 -15 8 0
-95 -4 0
-95 17 0
-96 95 94 0
-97 -25 0
-97 -13 0
-98 -11 0
-98 7 0
-99 98 97 0
-101 99 96 0
-102 -9 0
-102 -11 0
-103 -25 0
-103 -24 0
-104 103 102 0
-105 25 24 0
-107 9 11 0
-108 107 105 0
-109 108 0
-109 104 0
-110 -14 -11 0
-111 14 -7 0
-112 111 0
-112 110 0
-113 112 109 0
-114 113 101 0
-115 114 0
-115 93 0
-116 -18 0
-116 -20 0
-117 -16 0
-117 -10 0
-118 117 0
-118 116 0
-119 14 -21 0
-120 21 -14 0
-121 120 0
-121 119 0
-122 22 0
-122 -6 0
-123 122 0
-123 121 0
-124 123 118 0
-125 23 0
-125 -22 0
-126 14 0
-126 21 0
-127 126 125 0
-128 -25 15 0
-129 16 0
-129 25 0
-130 129 128 0
-131 130 127 0
-132 131 124 0
-133 5 0
-133 -2 0
-134 2 0
-134 -5 0
-135 134 133 0
-136 -2 0
-136 -16 0
-137 136 135 0
-138 18 0
-138 17 0
-139 -7 0
-139 6 0
-140 139 0
-140 138 0
-141 140 137 0
-142 -12 0
-142 -25 0
-143 -5 0
-143 -16 0
-144 143 142 0
-145 15 13 0
-146 20 -15 0
-147 146 0
-147 145 0
-148 147 144 0
-149 148 0
-149 141 0
-150 149 0
-150 132 0
-151 150 115 0
-152 -6 12 0
-153 -12 6 0
-154 153 0
-154 152 0
-155 7 -23 0
-156 155 154 0
-157 -7 0
-157 23 0
-158 6 0
-158 -12 0
-159 12 0
-159 -6 0
-160 159 158 0
-161 160 157 0
-162 161 0
-162 156 0
-163 13 0
-163 -10 0
-164 -11 0
-164 -2 0
-165 164 163 0
-166 165 0
-166 162 0
-167 1 -23 0
-168 -7 0
-169 168 167 0
-170 -1 0
-170 22 0
-171 -24 0
-171 -13 0
-172 171 170 0
-173 172 0
-173 169 0
-174 173 166 0
-175 -8 0
-175 -20 0
-176 7 8 0
-177 -8 -7 0
-178 177 0
-178 176 0
-179 178 175 0
-180 25 0
-180 -22 0
-181 -17 -7 0
-182 181 0
-182 180 0
-183 182 179 0
-184 -24 0
-184 14 0
-185 6 0
-185 10 0
-186 185 0
-186 184 0
-187 4 1 0
-188 13 0
-188 -5 0
-189 188 187 0
-190 189 0
-190 186 0
-191 190 0
-191 183 0
-26 191 174 0
-68 -15 0
-68 18 0
-71 5 0
-71 23 0
-77 -23 0
-77 -5 0
-83 77 71 0
-89 83 68 0
-27 8 13 0
-100 20 -6 0
-106 100 0
-106 27 0
-28 106 0
-28 89 0
-29 13 -8 0
-30 22 16 0
-31 30 0
-31 29 0
-32 -22 0
-32 -16 0
-33 -13 0
-33 8 0
-34 33 0
-34 32 0
-35 34 31 0
-36 24 4 0
-37 -13 1 0
-38 37 0
-38 36 0
-39 38 35 0
-40 39 0
-40 28 0
-41 -4 0
-41 21 0
-42 22 0
-42 19 0
-43 42 0
-43 41 0
-44 -19 0
-44 -24 0
-45 -19 -1 0
-46 1 19 0
-47 46 0
-47 45 0
-48 47 44 0
-49 48 43 0
-50 10 0
-51 15 0
-51 6 0
-52 51 50 0
-53 -21 0
-53 3 0
-54 -20 -21 0
-55 54 53 0
-56 55 0
-56 52 0
-57 21 -3 0
-58 20 0
-58 21 0
-59 58 0
-59 57 0
-60 -10 0
-61 -15 -6 0
-62 61 0
-62 60 0
-63 62 0
-63 59 0
-64 63 56 0
-65 64 0
-65 49 0
-66 65 0
-66 40 0
-67 66 0
-67 26 0
67 151 0
-84 -81 0
-81 -84 0
-85 -80 0
-105 -103 0
-107 -102 0
-102 -107 0
-155 -157 0
-157 -155 0
-154 -160 0
-32 -30 0
-30 -32 0
-33 -29 0
-53 -57 0
-57 -53 0
-54 -58 0
-58 -54 0
-59 -55 0
-55 -59 0
-60 -50 0
-50 -60 0
-61 -51 0
-51 -61 0
-52 -62 0
-62 -52 0
