projected/problems_b25_r0_d7_m100_s666/b25_d7_r0_s666_035.smt2
(set-logic QF_UF)
(declare-fun A0 () Bool)
(declare-fun A1 () Bool)
(declare-fun A2 () Bool)
(declare-fun A3 () Bool)
(declare-fun A4 () Bool)
(declare-fun A5 () Bool)
(declare-fun A6 () Bool)
(declare-fun A7 () Bool)
(declare-fun A8 () Bool)
(declare-fun A9 () Bool)
(declare-fun A10 () Bool)
(declare-fun A11 () Bool)
(declare-fun A12 () Bool)
(declare-fun A13 () Bool)
(declare-fun A14 () Bool)
(declare-fun A15 () Bool)
(declare-fun A16 () Bool)
(declare-fun A17 () Bool)
(declare-fun A18 () Bool)
(declare-fun A19 () Bool)
(declare-fun A20 () Bool)
(declare-fun A21 () Bool)
(declare-fun A22 () Bool)
(declare-fun A23 () Bool)
(declare-fun A24 () Bool)
(assert (let ((.def_0 (not A19))) (let ((.def_1 (and .def_0 A15))) (let ((.def_2 (not A14))) (let ((.def_3 (and A11 .def_2))) (let ((.def_4 (not .def_3))) (let ((.def_5 (and .def_4 .def_1))) (let ((.def_6 (not .def_5))) (let ((.def_7 (not A3))) (let ((.def_8 (and A15 .def_7))) (let ((.def_9 (not .def_8))) (let ((.def_10 (not A13))) (let ((.def_11 (= A1 .def_10))) (let ((.def_12 (not .def_11))) (let ((.def_13 (and .def_12 .def_9))) (let ((.def_14 (not .def_13))) (let ((.def_15 (or .def_14 .def_6))) (let ((.def_16 (not A4))) (let ((.def_17 (and A7 .def_16))) (let ((.def_18 (not .def_17))) (let ((.def_19 (not A2))) (let ((.def_20 (and .def_19 A11))) (let ((.def_21 (= .def_20 .def_18))) (let ((.def_22 (not .def_21))) (let ((.def_23 (and A16 A22))) (let ((.def_24 (not .def_23))) (let ((.def_25 (or .def_10 A17))) (let ((.def_26 (or .def_25 .def_24))) (let ((.def_27 (not .def_26))) (let ((.def_28 (or .def_27 .def_22))) (let ((.def_29 (or .def_28 .def_15))) (let ((.def_30 (not .def_29))) (let ((.def_31 (not A7))) (let ((.def_32 (and A14 .def_31))) (let ((.def_33 (not A16))) (let ((.def_34 (or A3 .def_33))) (let ((.def_35 (and .def_34 .def_32))) (let ((.def_36 (not A12))) (let ((.def_37 (not A24))) (let ((.def_38 (and .def_37 .def_36))) (let ((.def_39 (not .def_38))) (let ((.def_40 (not A6))) (let ((.def_41 (or A10 .def_40))) (let ((.def_42 (and .def_41 .def_39))) (let ((.def_43 (and .def_42 .def_35))) (let ((.def_44 (or A24 A23))) (let ((.def_45 (or A8 A10))) (let ((.def_46 (not .def_45))) (let ((.def_47 (= .def_46 .def_44))) (let ((.def_48 (not .def_47))) (let ((.def_49 (and A13 A10))) (let ((.def_50 (or A13 .def_40))) (let ((.def_51 (not .def_50))) (let ((.def_52 (or .def_51 .def_49))) (let ((.def_53 (and .def_52 .def_48))) (let ((.def_54 (and .def_53 .def_43))) (let ((.def_55 (or .def_54 .def_30))) (let ((.def_56 (or A17 A19))) (let ((.def_57 (not .def_56))) (let ((.def_58 (not A9))) (let ((.def_59 (not A15))) (let ((.def_60 (and .def_59 .def_58))) (let ((.def_61 (and .def_60 .def_57))) (let ((.def_62 (not A20))) (let ((.def_63 (= .def_62 .def_10))) (let ((.def_64 (not A5))) (let ((.def_65 (and A21 .def_64))) (let ((.def_66 (and .def_65 .def_63))) (let ((.def_67 (or .def_66 .def_61))) (let ((.def_68 (not A21))) (let ((.def_69 (and A22 .def_68))) (let ((.def_70 (or .def_10 .def_62))) (let ((.def_71 (not .def_70))) (let ((.def_72 (or .def_71 .def_69))) (let ((.def_73 (or .def_37 A14))) (let ((.def_74 (or .def_59 .def_37))) (let ((.def_75 (not .def_74))) (let ((.def_76 (or .def_75 .def_73))) (let ((.def_77 (or .def_76 .def_72))) (let ((.def_78 (or .def_77 .def_67))) (let ((.def_79 (= A1 A4))) (let ((.def_80 (not A1))) (let ((.def_81 (and .def_80 .def_59))) (let ((.def_82 (not .def_81))) (let ((.def_83 (and .def_82 .def_79))) (let ((.def_84 (and A17 A16))) (let ((.def_85 (not .def_84))) (let ((.def_86 (or A6 .def_64))) (let ((.def_87 (or .def_86 .def_85))) (let ((.def_88 (and .def_87 .def_83))) (let ((.def_89 (not .def_88))) (let ((.def_90 (not A11))) (let ((.def_91 (and .def_90 .def_37))) (let ((.def_92 (or A4 A15))) (let ((.def_93 (not .def_92))) (let ((.def_94 (or .def_93 .def_91))) (let ((.def_95 (not .def_94))) (let ((.def_96 (or A14 A12))) (let ((.def_97 (not .def_96))) (let ((.def_98 (or A19 .def_2))) (let ((.def_99 (not .def_98))) (let ((.def_100 (or .def_99 .def_97))) (let ((.def_101 (and .def_100 .def_95))) (let ((.def_102 (not .def_101))) (let ((.def_103 (and .def_102 .def_89))) (let ((.def_104 (and .def_103 .def_78))) (let ((.def_105 (not .def_104))) (let ((.def_106 (and .def_105 .def_55))) (let ((.def_107 (not A22))) (let ((.def_108 (or A6 .def_107))) (let ((.def_109 (not .def_108))) (let ((.def_110 (= A11 A5))) (let ((.def_111 (= .def_110 .def_109))) (let ((.def_112 (not .def_111))) (let ((.def_113 (or .def_36 A9))) (let ((.def_114 (not A10))) (let ((.def_115 (and .def_114 .def_80))) (let ((.def_116 (not .def_115))) (let ((.def_117 (and .def_116 .def_113))) (let ((.def_118 (or .def_117 .def_112))) (let ((.def_119 (not .def_118))) (let ((.def_120 (not A0))) (let ((.def_121 (and .def_120 A22))) (let ((.def_122 (not .def_121))) (let ((.def_123 (and .def_40 .def_40))) (let ((.def_124 (or .def_123 .def_122))) (let ((.def_125 (and .def_120 A21))) (let ((.def_126 (not .def_125))) (let ((.def_127 (not A23))) (let ((.def_128 (and .def_127 .def_36))) (let ((.def_129 (not .def_128))) (let ((.def_130 (and .def_129 .def_126))) (let ((.def_131 (not .def_130))) (let ((.def_132 (and .def_131 .def_124))) (let ((.def_133 (or .def_132 .def_119))) (let ((.def_134 (not .def_133))) (let ((.def_135 (or A7 A19))) (let ((.def_136 (= A7 .def_40))) (let ((.def_137 (not .def_136))) (let ((.def_138 (and .def_137 .def_135))) (let ((.def_139 (and A24 .def_68))) (let ((.def_140 (not .def_139))) (let ((.def_141 (and A16 A6))) (let ((.def_142 (or .def_141 .def_140))) (let ((.def_143 (and .def_142 .def_138))) (let ((.def_144 (and .def_127 A13))) (let ((.def_145 (not .def_144))) (let ((.def_146 (or .def_64 .def_58))) (let ((.def_147 (or .def_146 .def_145))) (let ((.def_148 (and .def_7 .def_120))) (let ((.def_149 (and A12 .def_16))) (let ((.def_150 (not .def_149))) (let ((.def_151 (and .def_150 .def_148))) (let ((.def_152 (or .def_151 .def_147))) (let ((.def_153 (or .def_152 .def_143))) (let ((.def_154 (and .def_153 .def_134))) (let ((.def_155 (and .def_2 A17))) (let ((.def_156 (= .def_107 A4))) (let ((.def_157 (not .def_156))) (let ((.def_158 (or .def_157 .def_155))) (let ((.def_159 (and .def_31 .def_36))) (let ((.def_160 (not .def_159))) (let ((.def_161 (or A19 .def_64))) (let ((.def_162 (and .def_161 .def_160))) (let ((.def_163 (and .def_162 .def_158))) (let ((.def_164 (not .def_163))) (let ((.def_165 (and .def_68 .def_59))) (let ((.def_166 (not .def_165))) (let ((.def_167 (and .def_36 A7))) (let ((.def_168 (= .def_167 .def_166))) (let ((.def_169 (not .def_168))) (let ((.def_170 (and .def_127 .def_7))) (let ((.def_171 (not .def_170))) (let ((.def_172 (and A12 .def_120))) (let ((.def_173 (not .def_172))) (let ((.def_174 (and .def_173 .def_171))) (let ((.def_175 (or .def_174 .def_169))) (let ((.def_176 (not .def_175))) (let ((.def_177 (or .def_176 .def_164))) (let ((.def_178 (or A3 .def_62))) (let ((.def_179 (and A21 A18))) (let ((.def_180 (not .def_179))) (let ((.def_181 (or .def_180 .def_178))) (let ((.def_182 (not .def_181))) (let ((.def_183 (or A18 A23))) (let ((.def_184 (not .def_183))) (let ((.def_185 (= .def_120 A18))) (let ((.def_186 (or .def_185 .def_184))) (let ((.def_187 (or .def_186 .def_182))) (let ((.def_188 (not .def_187))) (let ((.def_189 (and .def_62 A2))) (let ((.def_190 (not .def_189))) (let ((.def_191 (or .def_0 .def_62))) (let ((.def_192 (not .def_191))) (let ((.def_193 (and .def_192 .def_190))) (let ((.def_194 (not .def_193))) (let ((.def_195 (or .def_58 .def_58))) (let ((.def_196 (not .def_195))) (let ((.def_197 (or .def_2 .def_64))) (let ((.def_198 (not .def_197))) (let ((.def_199 (or .def_198 .def_196))) (let ((.def_200 (not .def_199))) (let ((.def_201 (= .def_200 .def_194))) (let ((.def_202 (or .def_201 .def_188))) (let ((.def_203 (or .def_202 .def_177))) (let ((.def_204 (or .def_203 .def_154))) (let ((.def_205 (and .def_204 .def_106))) (let ((.def_206 (not .def_205))) .def_206))))))))))))))))))))))))))))))))))))))))))))))))))))))))))))))))))))))))))))))))))))))))))))))))))))))))))))))))))))))))))))))))))))))))))))))))))))))))))))))))))))))))))))))))))))))))))))))))))))))))))))))))
(check-sat)
